c DIMACS CNF format
c Generated from: research_3vars_6clauses_seed42.md
c Enhanced research pipeline - dual analysis ready
c Generated on: 2025-07-15T10:57:52.477
c
p cnf 3 6
2 -2 -3 0
2 -2 2 0
-2 2 1 0
-2 1 1 0
-2 2 -1 0
-1 3 -1 0
